7 78 3 1 70 6 43 34 12 10 93 9 74 63 94 44 41 11 15 21 67 91 48 26 24 27 8 88 30 31 32 33 55 25 100 37 76 49 87 80 42 58 22 45 75 52 28 19 79 51 2 53 81 82 56 38 20 13 61 62 40 64 65 84 98 29 69 46 14 95 85 18 54 73 5 77 39 66 36 35 90 59 71 86 60 50 89 83 17 92 97 47 72 96 68 23 99 4 